p cnf 1302 2004
199 200 301 302 0
199 200 301 -302 0
199 200 -301 302 0
199 200 -301 -302 0
-199 -200 1 303 0
-199 -200 1 -303 0
199 -200 304 305 0
199 -200 304 -305 0
199 -200 -304 305 0
199 -200 -304 -305 0
-199 200 -1 306 0
-199 200 -1 -306 0
1 201 2 307 0
1 201 2 -307 0
-1 -201 2 308 0
-1 -201 2 -308 0
1 -201 -2 309 0
1 -201 -2 -309 0
-1 201 -2 310 0
-1 201 -2 -310 0
2 202 3 311 0
2 202 3 -311 0
-2 -202 3 312 0
-2 -202 3 -312 0
2 -202 -3 313 0
2 -202 -3 -313 0
-2 202 -3 314 0
-2 202 -3 -314 0
3 203 4 315 0
3 203 4 -315 0
-3 -203 4 316 0
-3 -203 4 -316 0
3 -203 -4 317 0
3 -203 -4 -317 0
-3 203 -4 318 0
-3 203 -4 -318 0
4 204 5 319 0
4 204 5 -319 0
-4 -204 5 320 0
-4 -204 5 -320 0
4 -204 -5 321 0
4 -204 -5 -321 0
-4 204 -5 322 0
-4 204 -5 -322 0
5 205 6 323 0
5 205 6 -323 0
-5 -205 6 324 0
-5 -205 6 -324 0
5 -205 -6 325 0
5 -205 -6 -325 0
-5 205 -6 326 0
-5 205 -6 -326 0
6 206 7 327 0
6 206 7 -327 0
-6 -206 7 328 0
-6 -206 7 -328 0
6 -206 -7 329 0
6 -206 -7 -329 0
-6 206 -7 330 0
-6 206 -7 -330 0
7 207 8 331 0
7 207 8 -331 0
-7 -207 8 332 0
-7 -207 8 -332 0
7 -207 -8 333 0
7 -207 -8 -333 0
-7 207 -8 334 0
-7 207 -8 -334 0
8 208 9 335 0
8 208 9 -335 0
-8 -208 9 336 0
-8 -208 9 -336 0
8 -208 -9 337 0
8 -208 -9 -337 0
-8 208 -9 338 0
-8 208 -9 -338 0
9 209 10 339 0
9 209 10 -339 0
-9 -209 10 340 0
-9 -209 10 -340 0
9 -209 -10 341 0
9 -209 -10 -341 0
-9 209 -10 342 0
-9 209 -10 -342 0
10 210 11 343 0
10 210 11 -343 0
-10 -210 11 344 0
-10 -210 11 -344 0
10 -210 -11 345 0
10 -210 -11 -345 0
-10 210 -11 346 0
-10 210 -11 -346 0
11 211 12 347 0
11 211 12 -347 0
-11 -211 12 348 0
-11 -211 12 -348 0
11 -211 -12 349 0
11 -211 -12 -349 0
-11 211 -12 350 0
-11 211 -12 -350 0
12 212 13 351 0
12 212 13 -351 0
-12 -212 13 352 0
-12 -212 13 -352 0
12 -212 -13 353 0
12 -212 -13 -353 0
-12 212 -13 354 0
-12 212 -13 -354 0
13 213 14 355 0
13 213 14 -355 0
-13 -213 14 356 0
-13 -213 14 -356 0
13 -213 -14 357 0
13 -213 -14 -357 0
-13 213 -14 358 0
-13 213 -14 -358 0
14 214 15 359 0
14 214 15 -359 0
-14 -214 15 360 0
-14 -214 15 -360 0
14 -214 -15 361 0
14 -214 -15 -361 0
-14 214 -15 362 0
-14 214 -15 -362 0
15 215 16 363 0
15 215 16 -363 0
-15 -215 16 364 0
-15 -215 16 -364 0
15 -215 -16 365 0
15 -215 -16 -365 0
-15 215 -16 366 0
-15 215 -16 -366 0
16 216 17 367 0
16 216 17 -367 0
-16 -216 17 368 0
-16 -216 17 -368 0
16 -216 -17 369 0
16 -216 -17 -369 0
-16 216 -17 370 0
-16 216 -17 -370 0
17 217 18 371 0
17 217 18 -371 0
-17 -217 18 372 0
-17 -217 18 -372 0
17 -217 -18 373 0
17 -217 -18 -373 0
-17 217 -18 374 0
-17 217 -18 -374 0
18 218 19 375 0
18 218 19 -375 0
-18 -218 19 376 0
-18 -218 19 -376 0
18 -218 -19 377 0
18 -218 -19 -377 0
-18 218 -19 378 0
-18 218 -19 -378 0
19 219 20 379 0
19 219 20 -379 0
-19 -219 20 380 0
-19 -219 20 -380 0
19 -219 -20 381 0
19 -219 -20 -381 0
-19 219 -20 382 0
-19 219 -20 -382 0
20 220 21 383 0
20 220 21 -383 0
-20 -220 21 384 0
-20 -220 21 -384 0
20 -220 -21 385 0
20 -220 -21 -385 0
-20 220 -21 386 0
-20 220 -21 -386 0
21 221 22 387 0
21 221 22 -387 0
-21 -221 22 388 0
-21 -221 22 -388 0
21 -221 -22 389 0
21 -221 -22 -389 0
-21 221 -22 390 0
-21 221 -22 -390 0
22 222 23 391 0
22 222 23 -391 0
-22 -222 23 392 0
-22 -222 23 -392 0
22 -222 -23 393 0
22 -222 -23 -393 0
-22 222 -23 394 0
-22 222 -23 -394 0
23 223 24 395 0
23 223 24 -395 0
-23 -223 24 396 0
-23 -223 24 -396 0
23 -223 -24 397 0
23 -223 -24 -397 0
-23 223 -24 398 0
-23 223 -24 -398 0
24 224 25 399 0
24 224 25 -399 0
-24 -224 25 400 0
-24 -224 25 -400 0
24 -224 -25 401 0
24 -224 -25 -401 0
-24 224 -25 402 0
-24 224 -25 -402 0
25 225 26 403 0
25 225 26 -403 0
-25 -225 26 404 0
-25 -225 26 -404 0
25 -225 -26 405 0
25 -225 -26 -405 0
-25 225 -26 406 0
-25 225 -26 -406 0
26 226 27 407 0
26 226 27 -407 0
-26 -226 27 408 0
-26 -226 27 -408 0
26 -226 -27 409 0
26 -226 -27 -409 0
-26 226 -27 410 0
-26 226 -27 -410 0
27 227 28 411 0
27 227 28 -411 0
-27 -227 28 412 0
-27 -227 28 -412 0
27 -227 -28 413 0
27 -227 -28 -413 0
-27 227 -28 414 0
-27 227 -28 -414 0
28 228 29 415 0
28 228 29 -415 0
-28 -228 29 416 0
-28 -228 29 -416 0
28 -228 -29 417 0
28 -228 -29 -417 0
-28 228 -29 418 0
-28 228 -29 -418 0
29 229 30 419 0
29 229 30 -419 0
-29 -229 30 420 0
-29 -229 30 -420 0
29 -229 -30 421 0
29 -229 -30 -421 0
-29 229 -30 422 0
-29 229 -30 -422 0
30 230 31 423 0
30 230 31 -423 0
-30 -230 31 424 0
-30 -230 31 -424 0
30 -230 -31 425 0
30 -230 -31 -425 0
-30 230 -31 426 0
-30 230 -31 -426 0
31 231 32 427 0
31 231 32 -427 0
-31 -231 32 428 0
-31 -231 32 -428 0
31 -231 -32 429 0
31 -231 -32 -429 0
-31 231 -32 430 0
-31 231 -32 -430 0
32 232 33 431 0
32 232 33 -431 0
-32 -232 33 432 0
-32 -232 33 -432 0
32 -232 -33 433 0
32 -232 -33 -433 0
-32 232 -33 434 0
-32 232 -33 -434 0
33 233 34 435 0
33 233 34 -435 0
-33 -233 34 436 0
-33 -233 34 -436 0
33 -233 -34 437 0
33 -233 -34 -437 0
-33 233 -34 438 0
-33 233 -34 -438 0
34 234 35 439 0
34 234 35 -439 0
-34 -234 35 440 0
-34 -234 35 -440 0
34 -234 -35 441 0
34 -234 -35 -441 0
-34 234 -35 442 0
-34 234 -35 -442 0
35 235 36 443 0
35 235 36 -443 0
-35 -235 36 444 0
-35 -235 36 -444 0
35 -235 -36 445 0
35 -235 -36 -445 0
-35 235 -36 446 0
-35 235 -36 -446 0
36 236 37 447 0
36 236 37 -447 0
-36 -236 37 448 0
-36 -236 37 -448 0
36 -236 -37 449 0
36 -236 -37 -449 0
-36 236 -37 450 0
-36 236 -37 -450 0
37 237 38 451 0
37 237 38 -451 0
-37 -237 38 452 0
-37 -237 38 -452 0
37 -237 -38 453 0
37 -237 -38 -453 0
-37 237 -38 454 0
-37 237 -38 -454 0
38 238 39 455 0
38 238 39 -455 0
-38 -238 39 456 0
-38 -238 39 -456 0
38 -238 -39 457 0
38 -238 -39 -457 0
-38 238 -39 458 0
-38 238 -39 -458 0
39 239 40 459 0
39 239 40 -459 0
-39 -239 40 460 0
-39 -239 40 -460 0
39 -239 -40 461 0
39 -239 -40 -461 0
-39 239 -40 462 0
-39 239 -40 -462 0
40 240 41 463 0
40 240 41 -463 0
-40 -240 41 464 0
-40 -240 41 -464 0
40 -240 -41 465 0
40 -240 -41 -465 0
-40 240 -41 466 0
-40 240 -41 -466 0
41 241 42 467 0
41 241 42 -467 0
-41 -241 42 468 0
-41 -241 42 -468 0
41 -241 -42 469 0
41 -241 -42 -469 0
-41 241 -42 470 0
-41 241 -42 -470 0
42 242 43 471 0
42 242 43 -471 0
-42 -242 43 472 0
-42 -242 43 -472 0
42 -242 -43 473 0
42 -242 -43 -473 0
-42 242 -43 474 0
-42 242 -43 -474 0
43 243 44 475 0
43 243 44 -475 0
-43 -243 44 476 0
-43 -243 44 -476 0
43 -243 -44 477 0
43 -243 -44 -477 0
-43 243 -44 478 0
-43 243 -44 -478 0
44 244 45 479 0
44 244 45 -479 0
-44 -244 45 480 0
-44 -244 45 -480 0
44 -244 -45 481 0
44 -244 -45 -481 0
-44 244 -45 482 0
-44 244 -45 -482 0
45 245 46 483 0
45 245 46 -483 0
-45 -245 46 484 0
-45 -245 46 -484 0
45 -245 -46 485 0
45 -245 -46 -485 0
-45 245 -46 486 0
-45 245 -46 -486 0
46 246 47 487 0
46 246 47 -487 0
-46 -246 47 488 0
-46 -246 47 -488 0
46 -246 -47 489 0
46 -246 -47 -489 0
-46 246 -47 490 0
-46 246 -47 -490 0
47 247 48 491 0
47 247 48 -491 0
-47 -247 48 492 0
-47 -247 48 -492 0
47 -247 -48 493 0
47 -247 -48 -493 0
-47 247 -48 494 0
-47 247 -48 -494 0
48 248 49 495 0
48 248 49 -495 0
-48 -248 49 496 0
-48 -248 49 -496 0
48 -248 -49 497 0
48 -248 -49 -497 0
-48 248 -49 498 0
-48 248 -49 -498 0
49 249 50 499 0
49 249 50 -499 0
-49 -249 50 500 0
-49 -249 50 -500 0
49 -249 -50 501 0
49 -249 -50 -501 0
-49 249 -50 502 0
-49 249 -50 -502 0
50 250 51 503 0
50 250 51 -503 0
-50 -250 51 504 0
-50 -250 51 -504 0
50 -250 -51 505 0
50 -250 -51 -505 0
-50 250 -51 506 0
-50 250 -51 -506 0
51 251 52 507 0
51 251 52 -507 0
-51 -251 52 508 0
-51 -251 52 -508 0
51 -251 -52 509 0
51 -251 -52 -509 0
-51 251 -52 510 0
-51 251 -52 -510 0
52 252 53 511 0
52 252 53 -511 0
-52 -252 53 512 0
-52 -252 53 -512 0
52 -252 -53 513 0
52 -252 -53 -513 0
-52 252 -53 514 0
-52 252 -53 -514 0
53 253 54 515 0
53 253 54 -515 0
-53 -253 54 516 0
-53 -253 54 -516 0
53 -253 -54 517 0
53 -253 -54 -517 0
-53 253 -54 518 0
-53 253 -54 -518 0
54 254 55 519 0
54 254 55 -519 0
-54 -254 55 520 0
-54 -254 55 -520 0
54 -254 -55 521 0
54 -254 -55 -521 0
-54 254 -55 522 0
-54 254 -55 -522 0
55 255 56 523 0
55 255 56 -523 0
-55 -255 56 524 0
-55 -255 56 -524 0
55 -255 -56 525 0
55 -255 -56 -525 0
-55 255 -56 526 0
-55 255 -56 -526 0
56 256 57 527 0
56 256 57 -527 0
-56 -256 57 528 0
-56 -256 57 -528 0
56 -256 -57 529 0
56 -256 -57 -529 0
-56 256 -57 530 0
-56 256 -57 -530 0
57 257 58 531 0
57 257 58 -531 0
-57 -257 58 532 0
-57 -257 58 -532 0
57 -257 -58 533 0
57 -257 -58 -533 0
-57 257 -58 534 0
-57 257 -58 -534 0
58 258 59 535 0
58 258 59 -535 0
-58 -258 59 536 0
-58 -258 59 -536 0
58 -258 -59 537 0
58 -258 -59 -537 0
-58 258 -59 538 0
-58 258 -59 -538 0
59 259 60 539 0
59 259 60 -539 0
-59 -259 60 540 0
-59 -259 60 -540 0
59 -259 -60 541 0
59 -259 -60 -541 0
-59 259 -60 542 0
-59 259 -60 -542 0
60 260 61 543 0
60 260 61 -543 0
-60 -260 61 544 0
-60 -260 61 -544 0
60 -260 -61 545 0
60 -260 -61 -545 0
-60 260 -61 546 0
-60 260 -61 -546 0
61 261 62 547 0
61 261 62 -547 0
-61 -261 62 548 0
-61 -261 62 -548 0
61 -261 -62 549 0
61 -261 -62 -549 0
-61 261 -62 550 0
-61 261 -62 -550 0
62 262 63 551 0
62 262 63 -551 0
-62 -262 63 552 0
-62 -262 63 -552 0
62 -262 -63 553 0
62 -262 -63 -553 0
-62 262 -63 554 0
-62 262 -63 -554 0
63 263 64 555 0
63 263 64 -555 0
-63 -263 64 556 0
-63 -263 64 -556 0
63 -263 -64 557 0
63 -263 -64 -557 0
-63 263 -64 558 0
-63 263 -64 -558 0
64 264 65 559 0
64 264 65 -559 0
-64 -264 65 560 0
-64 -264 65 -560 0
64 -264 -65 561 0
64 -264 -65 -561 0
-64 264 -65 562 0
-64 264 -65 -562 0
65 265 66 563 0
65 265 66 -563 0
-65 -265 66 564 0
-65 -265 66 -564 0
65 -265 -66 565 0
65 -265 -66 -565 0
-65 265 -66 566 0
-65 265 -66 -566 0
66 266 67 567 0
66 266 67 -567 0
-66 -266 67 568 0
-66 -266 67 -568 0
66 -266 -67 569 0
66 -266 -67 -569 0
-66 266 -67 570 0
-66 266 -67 -570 0
67 267 68 571 0
67 267 68 -571 0
-67 -267 68 572 0
-67 -267 68 -572 0
67 -267 -68 573 0
67 -267 -68 -573 0
-67 267 -68 574 0
-67 267 -68 -574 0
68 268 69 575 0
68 268 69 -575 0
-68 -268 69 576 0
-68 -268 69 -576 0
68 -268 -69 577 0
68 -268 -69 -577 0
-68 268 -69 578 0
-68 268 -69 -578 0
69 269 70 579 0
69 269 70 -579 0
-69 -269 70 580 0
-69 -269 70 -580 0
69 -269 -70 581 0
69 -269 -70 -581 0
-69 269 -70 582 0
-69 269 -70 -582 0
70 270 71 583 0
70 270 71 -583 0
-70 -270 71 584 0
-70 -270 71 -584 0
70 -270 -71 585 0
70 -270 -71 -585 0
-70 270 -71 586 0
-70 270 -71 -586 0
71 271 72 587 0
71 271 72 -587 0
-71 -271 72 588 0
-71 -271 72 -588 0
71 -271 -72 589 0
71 -271 -72 -589 0
-71 271 -72 590 0
-71 271 -72 -590 0
72 272 73 591 0
72 272 73 -591 0
-72 -272 73 592 0
-72 -272 73 -592 0
72 -272 -73 593 0
72 -272 -73 -593 0
-72 272 -73 594 0
-72 272 -73 -594 0
73 273 74 595 0
73 273 74 -595 0
-73 -273 74 596 0
-73 -273 74 -596 0
73 -273 -74 597 0
73 -273 -74 -597 0
-73 273 -74 598 0
-73 273 -74 -598 0
74 274 75 599 0
74 274 75 -599 0
-74 -274 75 600 0
-74 -274 75 -600 0
74 -274 -75 601 0
74 -274 -75 -601 0
-74 274 -75 602 0
-74 274 -75 -602 0
75 275 76 603 0
75 275 76 -603 0
-75 -275 76 604 0
-75 -275 76 -604 0
75 -275 -76 605 0
75 -275 -76 -605 0
-75 275 -76 606 0
-75 275 -76 -606 0
76 276 77 607 0
76 276 77 -607 0
-76 -276 77 608 0
-76 -276 77 -608 0
76 -276 -77 609 0
76 -276 -77 -609 0
-76 276 -77 610 0
-76 276 -77 -610 0
77 277 78 611 0
77 277 78 -611 0
-77 -277 78 612 0
-77 -277 78 -612 0
77 -277 -78 613 0
77 -277 -78 -613 0
-77 277 -78 614 0
-77 277 -78 -614 0
78 278 79 615 0
78 278 79 -615 0
-78 -278 79 616 0
-78 -278 79 -616 0
78 -278 -79 617 0
78 -278 -79 -617 0
-78 278 -79 618 0
-78 278 -79 -618 0
79 279 80 619 0
79 279 80 -619 0
-79 -279 80 620 0
-79 -279 80 -620 0
79 -279 -80 621 0
79 -279 -80 -621 0
-79 279 -80 622 0
-79 279 -80 -622 0
80 280 81 623 0
80 280 81 -623 0
-80 -280 81 624 0
-80 -280 81 -624 0
80 -280 -81 625 0
80 -280 -81 -625 0
-80 280 -81 626 0
-80 280 -81 -626 0
81 281 82 627 0
81 281 82 -627 0
-81 -281 82 628 0
-81 -281 82 -628 0
81 -281 -82 629 0
81 -281 -82 -629 0
-81 281 -82 630 0
-81 281 -82 -630 0
82 282 83 631 0
82 282 83 -631 0
-82 -282 83 632 0
-82 -282 83 -632 0
82 -282 -83 633 0
82 -282 -83 -633 0
-82 282 -83 634 0
-82 282 -83 -634 0
83 283 84 635 0
83 283 84 -635 0
-83 -283 84 636 0
-83 -283 84 -636 0
83 -283 -84 637 0
83 -283 -84 -637 0
-83 283 -84 638 0
-83 283 -84 -638 0
84 284 85 639 0
84 284 85 -639 0
-84 -284 85 640 0
-84 -284 85 -640 0
84 -284 -85 641 0
84 -284 -85 -641 0
-84 284 -85 642 0
-84 284 -85 -642 0
85 285 86 643 0
85 285 86 -643 0
-85 -285 86 644 0
-85 -285 86 -644 0
85 -285 -86 645 0
85 -285 -86 -645 0
-85 285 -86 646 0
-85 285 -86 -646 0
86 286 87 647 0
86 286 87 -647 0
-86 -286 87 648 0
-86 -286 87 -648 0
86 -286 -87 649 0
86 -286 -87 -649 0
-86 286 -87 650 0
-86 286 -87 -650 0
87 287 88 651 0
87 287 88 -651 0
-87 -287 88 652 0
-87 -287 88 -652 0
87 -287 -88 653 0
87 -287 -88 -653 0
-87 287 -88 654 0
-87 287 -88 -654 0
88 288 89 655 0
88 288 89 -655 0
-88 -288 89 656 0
-88 -288 89 -656 0
88 -288 -89 657 0
88 -288 -89 -657 0
-88 288 -89 658 0
-88 288 -89 -658 0
89 289 90 659 0
89 289 90 -659 0
-89 -289 90 660 0
-89 -289 90 -660 0
89 -289 -90 661 0
89 -289 -90 -661 0
-89 289 -90 662 0
-89 289 -90 -662 0
90 290 91 663 0
90 290 91 -663 0
-90 -290 91 664 0
-90 -290 91 -664 0
90 -290 -91 665 0
90 -290 -91 -665 0
-90 290 -91 666 0
-90 290 -91 -666 0
91 291 92 667 0
91 291 92 -667 0
-91 -291 92 668 0
-91 -291 92 -668 0
91 -291 -92 669 0
91 -291 -92 -669 0
-91 291 -92 670 0
-91 291 -92 -670 0
92 292 93 671 0
92 292 93 -671 0
-92 -292 93 672 0
-92 -292 93 -672 0
92 -292 -93 673 0
92 -292 -93 -673 0
-92 292 -93 674 0
-92 292 -93 -674 0
93 293 94 675 0
93 293 94 -675 0
-93 -293 94 676 0
-93 -293 94 -676 0
93 -293 -94 677 0
93 -293 -94 -677 0
-93 293 -94 678 0
-93 293 -94 -678 0
94 294 95 679 0
94 294 95 -679 0
-94 -294 95 680 0
-94 -294 95 -680 0
94 -294 -95 681 0
94 -294 -95 -681 0
-94 294 -95 682 0
-94 294 -95 -682 0
95 295 96 683 0
95 295 96 -683 0
-95 -295 96 684 0
-95 -295 96 -684 0
95 -295 -96 685 0
95 -295 -96 -685 0
-95 295 -96 686 0
-95 295 -96 -686 0
96 296 97 687 0
96 296 97 -687 0
-96 -296 97 688 0
-96 -296 97 -688 0
96 -296 -97 689 0
96 -296 -97 -689 0
-96 296 -97 690 0
-96 296 -97 -690 0
97 297 98 691 0
97 297 98 -691 0
-97 -297 98 692 0
-97 -297 98 -692 0
97 -297 -98 693 0
97 -297 -98 -693 0
-97 297 -98 694 0
-97 297 -98 -694 0
98 298 99 695 0
98 298 99 -695 0
-98 -298 99 696 0
-98 -298 99 -696 0
98 -298 -99 697 0
98 -298 -99 -697 0
-98 298 -99 698 0
-98 298 -99 -698 0
99 299 300 699 0
99 299 300 -699 0
-99 -299 300 700 0
-99 -299 300 -700 0
99 -299 -300 701 0
99 -299 -300 -701 0
-99 299 -300 702 0
-99 299 -300 -702 0
100 299 703 704 0
100 299 703 -704 0
100 299 -703 704 0
100 299 -703 -704 0
-100 -299 300 705 0
-100 -299 300 -705 0
100 -299 706 707 0
100 -299 706 -707 0
100 -299 -706 707 0
100 -299 -706 -707 0
-100 299 -300 708 0
-100 299 -300 -708 0
101 298 709 710 0
101 298 709 -710 0
101 298 -709 710 0
101 298 -709 -710 0
-101 -298 100 711 0
-101 -298 100 -711 0
101 -298 712 713 0
101 -298 712 -713 0
101 -298 -712 713 0
101 -298 -712 -713 0
-101 298 -100 714 0
-101 298 -100 -714 0
102 297 715 716 0
102 297 715 -716 0
102 297 -715 716 0
102 297 -715 -716 0
-102 -297 101 717 0
-102 -297 101 -717 0
102 -297 718 719 0
102 -297 718 -719 0
102 -297 -718 719 0
102 -297 -718 -719 0
-102 297 -101 720 0
-102 297 -101 -720 0
103 296 721 722 0
103 296 721 -722 0
103 296 -721 722 0
103 296 -721 -722 0
-103 -296 102 723 0
-103 -296 102 -723 0
103 -296 724 725 0
103 -296 724 -725 0
103 -296 -724 725 0
103 -296 -724 -725 0
-103 296 -102 726 0
-103 296 -102 -726 0
104 295 727 728 0
104 295 727 -728 0
104 295 -727 728 0
104 295 -727 -728 0
-104 -295 103 729 0
-104 -295 103 -729 0
104 -295 730 731 0
104 -295 730 -731 0
104 -295 -730 731 0
104 -295 -730 -731 0
-104 295 -103 732 0
-104 295 -103 -732 0
105 294 733 734 0
105 294 733 -734 0
105 294 -733 734 0
105 294 -733 -734 0
-105 -294 104 735 0
-105 -294 104 -735 0
105 -294 736 737 0
105 -294 736 -737 0
105 -294 -736 737 0
105 -294 -736 -737 0
-105 294 -104 738 0
-105 294 -104 -738 0
106 293 739 740 0
106 293 739 -740 0
106 293 -739 740 0
106 293 -739 -740 0
-106 -293 105 741 0
-106 -293 105 -741 0
106 -293 742 743 0
106 -293 742 -743 0
106 -293 -742 743 0
106 -293 -742 -743 0
-106 293 -105 744 0
-106 293 -105 -744 0
107 292 745 746 0
107 292 745 -746 0
107 292 -745 746 0
107 292 -745 -746 0
-107 -292 106 747 0
-107 -292 106 -747 0
107 -292 748 749 0
107 -292 748 -749 0
107 -292 -748 749 0
107 -292 -748 -749 0
-107 292 -106 750 0
-107 292 -106 -750 0
108 291 751 752 0
108 291 751 -752 0
108 291 -751 752 0
108 291 -751 -752 0
-108 -291 107 753 0
-108 -291 107 -753 0
108 -291 754 755 0
108 -291 754 -755 0
108 -291 -754 755 0
108 -291 -754 -755 0
-108 291 -107 756 0
-108 291 -107 -756 0
109 290 757 758 0
109 290 757 -758 0
109 290 -757 758 0
109 290 -757 -758 0
-109 -290 108 759 0
-109 -290 108 -759 0
109 -290 760 761 0
109 -290 760 -761 0
109 -290 -760 761 0
109 -290 -760 -761 0
-109 290 -108 762 0
-109 290 -108 -762 0
110 289 763 764 0
110 289 763 -764 0
110 289 -763 764 0
110 289 -763 -764 0
-110 -289 109 765 0
-110 -289 109 -765 0
110 -289 766 767 0
110 -289 766 -767 0
110 -289 -766 767 0
110 -289 -766 -767 0
-110 289 -109 768 0
-110 289 -109 -768 0
111 288 769 770 0
111 288 769 -770 0
111 288 -769 770 0
111 288 -769 -770 0
-111 -288 110 771 0
-111 -288 110 -771 0
111 -288 772 773 0
111 -288 772 -773 0
111 -288 -772 773 0
111 -288 -772 -773 0
-111 288 -110 774 0
-111 288 -110 -774 0
112 287 775 776 0
112 287 775 -776 0
112 287 -775 776 0
112 287 -775 -776 0
-112 -287 111 777 0
-112 -287 111 -777 0
112 -287 778 779 0
112 -287 778 -779 0
112 -287 -778 779 0
112 -287 -778 -779 0
-112 287 -111 780 0
-112 287 -111 -780 0
113 286 781 782 0
113 286 781 -782 0
113 286 -781 782 0
113 286 -781 -782 0
-113 -286 112 783 0
-113 -286 112 -783 0
113 -286 784 785 0
113 -286 784 -785 0
113 -286 -784 785 0
113 -286 -784 -785 0
-113 286 -112 786 0
-113 286 -112 -786 0
114 285 787 788 0
114 285 787 -788 0
114 285 -787 788 0
114 285 -787 -788 0
-114 -285 113 789 0
-114 -285 113 -789 0
114 -285 790 791 0
114 -285 790 -791 0
114 -285 -790 791 0
114 -285 -790 -791 0
-114 285 -113 792 0
-114 285 -113 -792 0
115 284 793 794 0
115 284 793 -794 0
115 284 -793 794 0
115 284 -793 -794 0
-115 -284 114 795 0
-115 -284 114 -795 0
115 -284 796 797 0
115 -284 796 -797 0
115 -284 -796 797 0
115 -284 -796 -797 0
-115 284 -114 798 0
-115 284 -114 -798 0
116 283 799 800 0
116 283 799 -800 0
116 283 -799 800 0
116 283 -799 -800 0
-116 -283 115 801 0
-116 -283 115 -801 0
116 -283 802 803 0
116 -283 802 -803 0
116 -283 -802 803 0
116 -283 -802 -803 0
-116 283 -115 804 0
-116 283 -115 -804 0
117 282 805 806 0
117 282 805 -806 0
117 282 -805 806 0
117 282 -805 -806 0
-117 -282 116 807 0
-117 -282 116 -807 0
117 -282 808 809 0
117 -282 808 -809 0
117 -282 -808 809 0
117 -282 -808 -809 0
-117 282 -116 810 0
-117 282 -116 -810 0
118 281 811 812 0
118 281 811 -812 0
118 281 -811 812 0
118 281 -811 -812 0
-118 -281 117 813 0
-118 -281 117 -813 0
118 -281 814 815 0
118 -281 814 -815 0
118 -281 -814 815 0
118 -281 -814 -815 0
-118 281 -117 816 0
-118 281 -117 -816 0
119 280 817 818 0
119 280 817 -818 0
119 280 -817 818 0
119 280 -817 -818 0
-119 -280 118 819 0
-119 -280 118 -819 0
119 -280 820 821 0
119 -280 820 -821 0
119 -280 -820 821 0
119 -280 -820 -821 0
-119 280 -118 822 0
-119 280 -118 -822 0
120 279 823 824 0
120 279 823 -824 0
120 279 -823 824 0
120 279 -823 -824 0
-120 -279 119 825 0
-120 -279 119 -825 0
120 -279 826 827 0
120 -279 826 -827 0
120 -279 -826 827 0
120 -279 -826 -827 0
-120 279 -119 828 0
-120 279 -119 -828 0
121 278 829 830 0
121 278 829 -830 0
121 278 -829 830 0
121 278 -829 -830 0
-121 -278 120 831 0
-121 -278 120 -831 0
121 -278 832 833 0
121 -278 832 -833 0
121 -278 -832 833 0
121 -278 -832 -833 0
-121 278 -120 834 0
-121 278 -120 -834 0
122 277 835 836 0
122 277 835 -836 0
122 277 -835 836 0
122 277 -835 -836 0
-122 -277 121 837 0
-122 -277 121 -837 0
122 -277 838 839 0
122 -277 838 -839 0
122 -277 -838 839 0
122 -277 -838 -839 0
-122 277 -121 840 0
-122 277 -121 -840 0
123 276 841 842 0
123 276 841 -842 0
123 276 -841 842 0
123 276 -841 -842 0
-123 -276 122 843 0
-123 -276 122 -843 0
123 -276 844 845 0
123 -276 844 -845 0
123 -276 -844 845 0
123 -276 -844 -845 0
-123 276 -122 846 0
-123 276 -122 -846 0
124 275 847 848 0
124 275 847 -848 0
124 275 -847 848 0
124 275 -847 -848 0
-124 -275 123 849 0
-124 -275 123 -849 0
124 -275 850 851 0
124 -275 850 -851 0
124 -275 -850 851 0
124 -275 -850 -851 0
-124 275 -123 852 0
-124 275 -123 -852 0
125 274 853 854 0
125 274 853 -854 0
125 274 -853 854 0
125 274 -853 -854 0
-125 -274 124 855 0
-125 -274 124 -855 0
125 -274 856 857 0
125 -274 856 -857 0
125 -274 -856 857 0
125 -274 -856 -857 0
-125 274 -124 858 0
-125 274 -124 -858 0
126 273 859 860 0
126 273 859 -860 0
126 273 -859 860 0
126 273 -859 -860 0
-126 -273 125 861 0
-126 -273 125 -861 0
126 -273 862 863 0
126 -273 862 -863 0
126 -273 -862 863 0
126 -273 -862 -863 0
-126 273 -125 864 0
-126 273 -125 -864 0
127 272 865 866 0
127 272 865 -866 0
127 272 -865 866 0
127 272 -865 -866 0
-127 -272 126 867 0
-127 -272 126 -867 0
127 -272 868 869 0
127 -272 868 -869 0
127 -272 -868 869 0
127 -272 -868 -869 0
-127 272 -126 870 0
-127 272 -126 -870 0
128 271 871 872 0
128 271 871 -872 0
128 271 -871 872 0
128 271 -871 -872 0
-128 -271 127 873 0
-128 -271 127 -873 0
128 -271 874 875 0
128 -271 874 -875 0
128 -271 -874 875 0
128 -271 -874 -875 0
-128 271 -127 876 0
-128 271 -127 -876 0
129 270 877 878 0
129 270 877 -878 0
129 270 -877 878 0
129 270 -877 -878 0
-129 -270 128 879 0
-129 -270 128 -879 0
129 -270 880 881 0
129 -270 880 -881 0
129 -270 -880 881 0
129 -270 -880 -881 0
-129 270 -128 882 0
-129 270 -128 -882 0
130 269 883 884 0
130 269 883 -884 0
130 269 -883 884 0
130 269 -883 -884 0
-130 -269 129 885 0
-130 -269 129 -885 0
130 -269 886 887 0
130 -269 886 -887 0
130 -269 -886 887 0
130 -269 -886 -887 0
-130 269 -129 888 0
-130 269 -129 -888 0
131 268 889 890 0
131 268 889 -890 0
131 268 -889 890 0
131 268 -889 -890 0
-131 -268 130 891 0
-131 -268 130 -891 0
131 -268 892 893 0
131 -268 892 -893 0
131 -268 -892 893 0
131 -268 -892 -893 0
-131 268 -130 894 0
-131 268 -130 -894 0
132 267 895 896 0
132 267 895 -896 0
132 267 -895 896 0
132 267 -895 -896 0
-132 -267 131 897 0
-132 -267 131 -897 0
132 -267 898 899 0
132 -267 898 -899 0
132 -267 -898 899 0
132 -267 -898 -899 0
-132 267 -131 900 0
-132 267 -131 -900 0
133 266 901 902 0
133 266 901 -902 0
133 266 -901 902 0
133 266 -901 -902 0
-133 -266 132 903 0
-133 -266 132 -903 0
133 -266 904 905 0
133 -266 904 -905 0
133 -266 -904 905 0
133 -266 -904 -905 0
-133 266 -132 906 0
-133 266 -132 -906 0
134 265 907 908 0
134 265 907 -908 0
134 265 -907 908 0
134 265 -907 -908 0
-134 -265 133 909 0
-134 -265 133 -909 0
134 -265 910 911 0
134 -265 910 -911 0
134 -265 -910 911 0
134 -265 -910 -911 0
-134 265 -133 912 0
-134 265 -133 -912 0
135 264 913 914 0
135 264 913 -914 0
135 264 -913 914 0
135 264 -913 -914 0
-135 -264 134 915 0
-135 -264 134 -915 0
135 -264 916 917 0
135 -264 916 -917 0
135 -264 -916 917 0
135 -264 -916 -917 0
-135 264 -134 918 0
-135 264 -134 -918 0
136 263 919 920 0
136 263 919 -920 0
136 263 -919 920 0
136 263 -919 -920 0
-136 -263 135 921 0
-136 -263 135 -921 0
136 -263 922 923 0
136 -263 922 -923 0
136 -263 -922 923 0
136 -263 -922 -923 0
-136 263 -135 924 0
-136 263 -135 -924 0
137 262 925 926 0
137 262 925 -926 0
137 262 -925 926 0
137 262 -925 -926 0
-137 -262 136 927 0
-137 -262 136 -927 0
137 -262 928 929 0
137 -262 928 -929 0
137 -262 -928 929 0
137 -262 -928 -929 0
-137 262 -136 930 0
-137 262 -136 -930 0
138 261 931 932 0
138 261 931 -932 0
138 261 -931 932 0
138 261 -931 -932 0
-138 -261 137 933 0
-138 -261 137 -933 0
138 -261 934 935 0
138 -261 934 -935 0
138 -261 -934 935 0
138 -261 -934 -935 0
-138 261 -137 936 0
-138 261 -137 -936 0
139 260 937 938 0
139 260 937 -938 0
139 260 -937 938 0
139 260 -937 -938 0
-139 -260 138 939 0
-139 -260 138 -939 0
139 -260 940 941 0
139 -260 940 -941 0
139 -260 -940 941 0
139 -260 -940 -941 0
-139 260 -138 942 0
-139 260 -138 -942 0
140 259 943 944 0
140 259 943 -944 0
140 259 -943 944 0
140 259 -943 -944 0
-140 -259 139 945 0
-140 -259 139 -945 0
140 -259 946 947 0
140 -259 946 -947 0
140 -259 -946 947 0
140 -259 -946 -947 0
-140 259 -139 948 0
-140 259 -139 -948 0
141 258 949 950 0
141 258 949 -950 0
141 258 -949 950 0
141 258 -949 -950 0
-141 -258 140 951 0
-141 -258 140 -951 0
141 -258 952 953 0
141 -258 952 -953 0
141 -258 -952 953 0
141 -258 -952 -953 0
-141 258 -140 954 0
-141 258 -140 -954 0
142 257 955 956 0
142 257 955 -956 0
142 257 -955 956 0
142 257 -955 -956 0
-142 -257 141 957 0
-142 -257 141 -957 0
142 -257 958 959 0
142 -257 958 -959 0
142 -257 -958 959 0
142 -257 -958 -959 0
-142 257 -141 960 0
-142 257 -141 -960 0
143 256 961 962 0
143 256 961 -962 0
143 256 -961 962 0
143 256 -961 -962 0
-143 -256 142 963 0
-143 -256 142 -963 0
143 -256 964 965 0
143 -256 964 -965 0
143 -256 -964 965 0
143 -256 -964 -965 0
-143 256 -142 966 0
-143 256 -142 -966 0
144 255 967 968 0
144 255 967 -968 0
144 255 -967 968 0
144 255 -967 -968 0
-144 -255 143 969 0
-144 -255 143 -969 0
144 -255 970 971 0
144 -255 970 -971 0
144 -255 -970 971 0
144 -255 -970 -971 0
-144 255 -143 972 0
-144 255 -143 -972 0
145 254 973 974 0
145 254 973 -974 0
145 254 -973 974 0
145 254 -973 -974 0
-145 -254 144 975 0
-145 -254 144 -975 0
145 -254 976 977 0
145 -254 976 -977 0
145 -254 -976 977 0
145 -254 -976 -977 0
-145 254 -144 978 0
-145 254 -144 -978 0
146 253 979 980 0
146 253 979 -980 0
146 253 -979 980 0
146 253 -979 -980 0
-146 -253 145 981 0
-146 -253 145 -981 0
146 -253 982 983 0
146 -253 982 -983 0
146 -253 -982 983 0
146 -253 -982 -983 0
-146 253 -145 984 0
-146 253 -145 -984 0
147 252 985 986 0
147 252 985 -986 0
147 252 -985 986 0
147 252 -985 -986 0
-147 -252 146 987 0
-147 -252 146 -987 0
147 -252 988 989 0
147 -252 988 -989 0
147 -252 -988 989 0
147 -252 -988 -989 0
-147 252 -146 990 0
-147 252 -146 -990 0
148 251 991 992 0
148 251 991 -992 0
148 251 -991 992 0
148 251 -991 -992 0
-148 -251 147 993 0
-148 -251 147 -993 0
148 -251 994 995 0
148 -251 994 -995 0
148 -251 -994 995 0
148 -251 -994 -995 0
-148 251 -147 996 0
-148 251 -147 -996 0
149 250 997 998 0
149 250 997 -998 0
149 250 -997 998 0
149 250 -997 -998 0
-149 -250 148 999 0
-149 -250 148 -999 0
149 -250 1000 1001 0
149 -250 1000 -1001 0
149 -250 -1000 1001 0
149 -250 -1000 -1001 0
-149 250 -148 1002 0
-149 250 -148 -1002 0
150 249 1003 1004 0
150 249 1003 -1004 0
150 249 -1003 1004 0
150 249 -1003 -1004 0
-150 -249 149 1005 0
-150 -249 149 -1005 0
150 -249 1006 1007 0
150 -249 1006 -1007 0
150 -249 -1006 1007 0
150 -249 -1006 -1007 0
-150 249 -149 1008 0
-150 249 -149 -1008 0
151 248 1009 1010 0
151 248 1009 -1010 0
151 248 -1009 1010 0
151 248 -1009 -1010 0
-151 -248 150 1011 0
-151 -248 150 -1011 0
151 -248 1012 1013 0
151 -248 1012 -1013 0
151 -248 -1012 1013 0
151 -248 -1012 -1013 0
-151 248 -150 1014 0
-151 248 -150 -1014 0
152 247 1015 1016 0
152 247 1015 -1016 0
152 247 -1015 1016 0
152 247 -1015 -1016 0
-152 -247 151 1017 0
-152 -247 151 -1017 0
152 -247 1018 1019 0
152 -247 1018 -1019 0
152 -247 -1018 1019 0
152 -247 -1018 -1019 0
-152 247 -151 1020 0
-152 247 -151 -1020 0
153 246 1021 1022 0
153 246 1021 -1022 0
153 246 -1021 1022 0
153 246 -1021 -1022 0
-153 -246 152 1023 0
-153 -246 152 -1023 0
153 -246 1024 1025 0
153 -246 1024 -1025 0
153 -246 -1024 1025 0
153 -246 -1024 -1025 0
-153 246 -152 1026 0
-153 246 -152 -1026 0
154 245 1027 1028 0
154 245 1027 -1028 0
154 245 -1027 1028 0
154 245 -1027 -1028 0
-154 -245 153 1029 0
-154 -245 153 -1029 0
154 -245 1030 1031 0
154 -245 1030 -1031 0
154 -245 -1030 1031 0
154 -245 -1030 -1031 0
-154 245 -153 1032 0
-154 245 -153 -1032 0
155 244 1033 1034 0
155 244 1033 -1034 0
155 244 -1033 1034 0
155 244 -1033 -1034 0
-155 -244 154 1035 0
-155 -244 154 -1035 0
155 -244 1036 1037 0
155 -244 1036 -1037 0
155 -244 -1036 1037 0
155 -244 -1036 -1037 0
-155 244 -154 1038 0
-155 244 -154 -1038 0
156 243 1039 1040 0
156 243 1039 -1040 0
156 243 -1039 1040 0
156 243 -1039 -1040 0
-156 -243 155 1041 0
-156 -243 155 -1041 0
156 -243 1042 1043 0
156 -243 1042 -1043 0
156 -243 -1042 1043 0
156 -243 -1042 -1043 0
-156 243 -155 1044 0
-156 243 -155 -1044 0
157 242 1045 1046 0
157 242 1045 -1046 0
157 242 -1045 1046 0
157 242 -1045 -1046 0
-157 -242 156 1047 0
-157 -242 156 -1047 0
157 -242 1048 1049 0
157 -242 1048 -1049 0
157 -242 -1048 1049 0
157 -242 -1048 -1049 0
-157 242 -156 1050 0
-157 242 -156 -1050 0
158 241 1051 1052 0
158 241 1051 -1052 0
158 241 -1051 1052 0
158 241 -1051 -1052 0
-158 -241 157 1053 0
-158 -241 157 -1053 0
158 -241 1054 1055 0
158 -241 1054 -1055 0
158 -241 -1054 1055 0
158 -241 -1054 -1055 0
-158 241 -157 1056 0
-158 241 -157 -1056 0
159 240 1057 1058 0
159 240 1057 -1058 0
159 240 -1057 1058 0
159 240 -1057 -1058 0
-159 -240 158 1059 0
-159 -240 158 -1059 0
159 -240 1060 1061 0
159 -240 1060 -1061 0
159 -240 -1060 1061 0
159 -240 -1060 -1061 0
-159 240 -158 1062 0
-159 240 -158 -1062 0
160 239 1063 1064 0
160 239 1063 -1064 0
160 239 -1063 1064 0
160 239 -1063 -1064 0
-160 -239 159 1065 0
-160 -239 159 -1065 0
160 -239 1066 1067 0
160 -239 1066 -1067 0
160 -239 -1066 1067 0
160 -239 -1066 -1067 0
-160 239 -159 1068 0
-160 239 -159 -1068 0
161 238 1069 1070 0
161 238 1069 -1070 0
161 238 -1069 1070 0
161 238 -1069 -1070 0
-161 -238 160 1071 0
-161 -238 160 -1071 0
161 -238 1072 1073 0
161 -238 1072 -1073 0
161 -238 -1072 1073 0
161 -238 -1072 -1073 0
-161 238 -160 1074 0
-161 238 -160 -1074 0
162 237 1075 1076 0
162 237 1075 -1076 0
162 237 -1075 1076 0
162 237 -1075 -1076 0
-162 -237 161 1077 0
-162 -237 161 -1077 0
162 -237 1078 1079 0
162 -237 1078 -1079 0
162 -237 -1078 1079 0
162 -237 -1078 -1079 0
-162 237 -161 1080 0
-162 237 -161 -1080 0
163 236 1081 1082 0
163 236 1081 -1082 0
163 236 -1081 1082 0
163 236 -1081 -1082 0
-163 -236 162 1083 0
-163 -236 162 -1083 0
163 -236 1084 1085 0
163 -236 1084 -1085 0
163 -236 -1084 1085 0
163 -236 -1084 -1085 0
-163 236 -162 1086 0
-163 236 -162 -1086 0
164 235 1087 1088 0
164 235 1087 -1088 0
164 235 -1087 1088 0
164 235 -1087 -1088 0
-164 -235 163 1089 0
-164 -235 163 -1089 0
164 -235 1090 1091 0
164 -235 1090 -1091 0
164 -235 -1090 1091 0
164 -235 -1090 -1091 0
-164 235 -163 1092 0
-164 235 -163 -1092 0
165 234 1093 1094 0
165 234 1093 -1094 0
165 234 -1093 1094 0
165 234 -1093 -1094 0
-165 -234 164 1095 0
-165 -234 164 -1095 0
165 -234 1096 1097 0
165 -234 1096 -1097 0
165 -234 -1096 1097 0
165 -234 -1096 -1097 0
-165 234 -164 1098 0
-165 234 -164 -1098 0
166 233 1099 1100 0
166 233 1099 -1100 0
166 233 -1099 1100 0
166 233 -1099 -1100 0
-166 -233 165 1101 0
-166 -233 165 -1101 0
166 -233 1102 1103 0
166 -233 1102 -1103 0
166 -233 -1102 1103 0
166 -233 -1102 -1103 0
-166 233 -165 1104 0
-166 233 -165 -1104 0
167 232 1105 1106 0
167 232 1105 -1106 0
167 232 -1105 1106 0
167 232 -1105 -1106 0
-167 -232 166 1107 0
-167 -232 166 -1107 0
167 -232 1108 1109 0
167 -232 1108 -1109 0
167 -232 -1108 1109 0
167 -232 -1108 -1109 0
-167 232 -166 1110 0
-167 232 -166 -1110 0
168 231 1111 1112 0
168 231 1111 -1112 0
168 231 -1111 1112 0
168 231 -1111 -1112 0
-168 -231 167 1113 0
-168 -231 167 -1113 0
168 -231 1114 1115 0
168 -231 1114 -1115 0
168 -231 -1114 1115 0
168 -231 -1114 -1115 0
-168 231 -167 1116 0
-168 231 -167 -1116 0
169 230 1117 1118 0
169 230 1117 -1118 0
169 230 -1117 1118 0
169 230 -1117 -1118 0
-169 -230 168 1119 0
-169 -230 168 -1119 0
169 -230 1120 1121 0
169 -230 1120 -1121 0
169 -230 -1120 1121 0
169 -230 -1120 -1121 0
-169 230 -168 1122 0
-169 230 -168 -1122 0
170 229 1123 1124 0
170 229 1123 -1124 0
170 229 -1123 1124 0
170 229 -1123 -1124 0
-170 -229 169 1125 0
-170 -229 169 -1125 0
170 -229 1126 1127 0
170 -229 1126 -1127 0
170 -229 -1126 1127 0
170 -229 -1126 -1127 0
-170 229 -169 1128 0
-170 229 -169 -1128 0
171 228 1129 1130 0
171 228 1129 -1130 0
171 228 -1129 1130 0
171 228 -1129 -1130 0
-171 -228 170 1131 0
-171 -228 170 -1131 0
171 -228 1132 1133 0
171 -228 1132 -1133 0
171 -228 -1132 1133 0
171 -228 -1132 -1133 0
-171 228 -170 1134 0
-171 228 -170 -1134 0
172 227 1135 1136 0
172 227 1135 -1136 0
172 227 -1135 1136 0
172 227 -1135 -1136 0
-172 -227 171 1137 0
-172 -227 171 -1137 0
172 -227 1138 1139 0
172 -227 1138 -1139 0
172 -227 -1138 1139 0
172 -227 -1138 -1139 0
-172 227 -171 1140 0
-172 227 -171 -1140 0
173 226 1141 1142 0
173 226 1141 -1142 0
173 226 -1141 1142 0
173 226 -1141 -1142 0
-173 -226 172 1143 0
-173 -226 172 -1143 0
173 -226 1144 1145 0
173 -226 1144 -1145 0
173 -226 -1144 1145 0
173 -226 -1144 -1145 0
-173 226 -172 1146 0
-173 226 -172 -1146 0
174 225 1147 1148 0
174 225 1147 -1148 0
174 225 -1147 1148 0
174 225 -1147 -1148 0
-174 -225 173 1149 0
-174 -225 173 -1149 0
174 -225 1150 1151 0
174 -225 1150 -1151 0
174 -225 -1150 1151 0
174 -225 -1150 -1151 0
-174 225 -173 1152 0
-174 225 -173 -1152 0
175 224 1153 1154 0
175 224 1153 -1154 0
175 224 -1153 1154 0
175 224 -1153 -1154 0
-175 -224 174 1155 0
-175 -224 174 -1155 0
175 -224 1156 1157 0
175 -224 1156 -1157 0
175 -224 -1156 1157 0
175 -224 -1156 -1157 0
-175 224 -174 1158 0
-175 224 -174 -1158 0
176 223 1159 1160 0
176 223 1159 -1160 0
176 223 -1159 1160 0
176 223 -1159 -1160 0
-176 -223 175 1161 0
-176 -223 175 -1161 0
176 -223 1162 1163 0
176 -223 1162 -1163 0
176 -223 -1162 1163 0
176 -223 -1162 -1163 0
-176 223 -175 1164 0
-176 223 -175 -1164 0
177 222 1165 1166 0
177 222 1165 -1166 0
177 222 -1165 1166 0
177 222 -1165 -1166 0
-177 -222 176 1167 0
-177 -222 176 -1167 0
177 -222 1168 1169 0
177 -222 1168 -1169 0
177 -222 -1168 1169 0
177 -222 -1168 -1169 0
-177 222 -176 1170 0
-177 222 -176 -1170 0
178 221 1171 1172 0
178 221 1171 -1172 0
178 221 -1171 1172 0
178 221 -1171 -1172 0
-178 -221 177 1173 0
-178 -221 177 -1173 0
178 -221 1174 1175 0
178 -221 1174 -1175 0
178 -221 -1174 1175 0
178 -221 -1174 -1175 0
-178 221 -177 1176 0
-178 221 -177 -1176 0
179 220 1177 1178 0
179 220 1177 -1178 0
179 220 -1177 1178 0
179 220 -1177 -1178 0
-179 -220 178 1179 0
-179 -220 178 -1179 0
179 -220 1180 1181 0
179 -220 1180 -1181 0
179 -220 -1180 1181 0
179 -220 -1180 -1181 0
-179 220 -178 1182 0
-179 220 -178 -1182 0
180 219 1183 1184 0
180 219 1183 -1184 0
180 219 -1183 1184 0
180 219 -1183 -1184 0
-180 -219 179 1185 0
-180 -219 179 -1185 0
180 -219 1186 1187 0
180 -219 1186 -1187 0
180 -219 -1186 1187 0
180 -219 -1186 -1187 0
-180 219 -179 1188 0
-180 219 -179 -1188 0
181 218 1189 1190 0
181 218 1189 -1190 0
181 218 -1189 1190 0
181 218 -1189 -1190 0
-181 -218 180 1191 0
-181 -218 180 -1191 0
181 -218 1192 1193 0
181 -218 1192 -1193 0
181 -218 -1192 1193 0
181 -218 -1192 -1193 0
-181 218 -180 1194 0
-181 218 -180 -1194 0
182 217 1195 1196 0
182 217 1195 -1196 0
182 217 -1195 1196 0
182 217 -1195 -1196 0
-182 -217 181 1197 0
-182 -217 181 -1197 0
182 -217 1198 1199 0
182 -217 1198 -1199 0
182 -217 -1198 1199 0
182 -217 -1198 -1199 0
-182 217 -181 1200 0
-182 217 -181 -1200 0
183 216 1201 1202 0
183 216 1201 -1202 0
183 216 -1201 1202 0
183 216 -1201 -1202 0
-183 -216 182 1203 0
-183 -216 182 -1203 0
183 -216 1204 1205 0
183 -216 1204 -1205 0
183 -216 -1204 1205 0
183 -216 -1204 -1205 0
-183 216 -182 1206 0
-183 216 -182 -1206 0
184 215 1207 1208 0
184 215 1207 -1208 0
184 215 -1207 1208 0
184 215 -1207 -1208 0
-184 -215 183 1209 0
-184 -215 183 -1209 0
184 -215 1210 1211 0
184 -215 1210 -1211 0
184 -215 -1210 1211 0
184 -215 -1210 -1211 0
-184 215 -183 1212 0
-184 215 -183 -1212 0
185 214 1213 1214 0
185 214 1213 -1214 0
185 214 -1213 1214 0
185 214 -1213 -1214 0
-185 -214 184 1215 0
-185 -214 184 -1215 0
185 -214 1216 1217 0
185 -214 1216 -1217 0
185 -214 -1216 1217 0
185 -214 -1216 -1217 0
-185 214 -184 1218 0
-185 214 -184 -1218 0
186 213 1219 1220 0
186 213 1219 -1220 0
186 213 -1219 1220 0
186 213 -1219 -1220 0
-186 -213 185 1221 0
-186 -213 185 -1221 0
186 -213 1222 1223 0
186 -213 1222 -1223 0
186 -213 -1222 1223 0
186 -213 -1222 -1223 0
-186 213 -185 1224 0
-186 213 -185 -1224 0
187 212 1225 1226 0
187 212 1225 -1226 0
187 212 -1225 1226 0
187 212 -1225 -1226 0
-187 -212 186 1227 0
-187 -212 186 -1227 0
187 -212 1228 1229 0
187 -212 1228 -1229 0
187 -212 -1228 1229 0
187 -212 -1228 -1229 0
-187 212 -186 1230 0
-187 212 -186 -1230 0
188 211 1231 1232 0
188 211 1231 -1232 0
188 211 -1231 1232 0
188 211 -1231 -1232 0
-188 -211 187 1233 0
-188 -211 187 -1233 0
188 -211 1234 1235 0
188 -211 1234 -1235 0
188 -211 -1234 1235 0
188 -211 -1234 -1235 0
-188 211 -187 1236 0
-188 211 -187 -1236 0
189 210 1237 1238 0
189 210 1237 -1238 0
189 210 -1237 1238 0
189 210 -1237 -1238 0
-189 -210 188 1239 0
-189 -210 188 -1239 0
189 -210 1240 1241 0
189 -210 1240 -1241 0
189 -210 -1240 1241 0
189 -210 -1240 -1241 0
-189 210 -188 1242 0
-189 210 -188 -1242 0
190 209 1243 1244 0
190 209 1243 -1244 0
190 209 -1243 1244 0
190 209 -1243 -1244 0
-190 -209 189 1245 0
-190 -209 189 -1245 0
190 -209 1246 1247 0
190 -209 1246 -1247 0
190 -209 -1246 1247 0
190 -209 -1246 -1247 0
-190 209 -189 1248 0
-190 209 -189 -1248 0
191 208 1249 1250 0
191 208 1249 -1250 0
191 208 -1249 1250 0
191 208 -1249 -1250 0
-191 -208 190 1251 0
-191 -208 190 -1251 0
191 -208 1252 1253 0
191 -208 1252 -1253 0
191 -208 -1252 1253 0
191 -208 -1252 -1253 0
-191 208 -190 1254 0
-191 208 -190 -1254 0
192 207 1255 1256 0
192 207 1255 -1256 0
192 207 -1255 1256 0
192 207 -1255 -1256 0
-192 -207 191 1257 0
-192 -207 191 -1257 0
192 -207 1258 1259 0
192 -207 1258 -1259 0
192 -207 -1258 1259 0
192 -207 -1258 -1259 0
-192 207 -191 1260 0
-192 207 -191 -1260 0
193 206 1261 1262 0
193 206 1261 -1262 0
193 206 -1261 1262 0
193 206 -1261 -1262 0
-193 -206 192 1263 0
-193 -206 192 -1263 0
193 -206 1264 1265 0
193 -206 1264 -1265 0
193 -206 -1264 1265 0
193 -206 -1264 -1265 0
-193 206 -192 1266 0
-193 206 -192 -1266 0
194 205 1267 1268 0
194 205 1267 -1268 0
194 205 -1267 1268 0
194 205 -1267 -1268 0
-194 -205 193 1269 0
-194 -205 193 -1269 0
194 -205 1270 1271 0
194 -205 1270 -1271 0
194 -205 -1270 1271 0
194 -205 -1270 -1271 0
-194 205 -193 1272 0
-194 205 -193 -1272 0
195 204 1273 1274 0
195 204 1273 -1274 0
195 204 -1273 1274 0
195 204 -1273 -1274 0
-195 -204 194 1275 0
-195 -204 194 -1275 0
195 -204 1276 1277 0
195 -204 1276 -1277 0
195 -204 -1276 1277 0
195 -204 -1276 -1277 0
-195 204 -194 1278 0
-195 204 -194 -1278 0
196 203 1279 1280 0
196 203 1279 -1280 0
196 203 -1279 1280 0
196 203 -1279 -1280 0
-196 -203 195 1281 0
-196 -203 195 -1281 0
196 -203 1282 1283 0
196 -203 1282 -1283 0
196 -203 -1282 1283 0
196 -203 -1282 -1283 0
-196 203 -195 1284 0
-196 203 -195 -1284 0
197 202 1285 1286 0
197 202 1285 -1286 0
197 202 -1285 1286 0
197 202 -1285 -1286 0
-197 -202 196 1287 0
-197 -202 196 -1287 0
197 -202 1288 1289 0
197 -202 1288 -1289 0
197 -202 -1288 1289 0
197 -202 -1288 -1289 0
-197 202 -196 1290 0
-197 202 -196 -1290 0
198 201 1291 1292 0
198 201 1291 -1292 0
198 201 -1291 1292 0
198 201 -1291 -1292 0
-198 -201 197 1293 0
-198 -201 197 -1293 0
198 -201 1294 1295 0
198 -201 1294 -1295 0
198 -201 -1294 1295 0
198 -201 -1294 -1295 0
-198 201 -197 1296 0
-198 201 -197 -1296 0
199 200 1297 1298 0
199 200 1297 -1298 0
199 200 -1297 1298 0
199 200 -1297 -1298 0
-199 -200 -198 1299 0
-199 -200 -198 -1299 0
199 -200 1300 1301 0
199 -200 1300 -1301 0
199 -200 -1300 1301 0
199 -200 -1300 -1301 0
-199 200 198 1302 0
-199 200 198 -1302 0
